(set-option :produce-models true); benchmark generated from python API
(set-info :status unknown)
(declare-fun l_1_0_9 () Real)
(declare-fun l_1_0_8 () Real)
(declare-fun l_1_0_3 () Real)
(declare-fun l_1_0_2 () Real)
(declare-fun l_1_0_1 () Real)
(declare-fun _a_0_ () Real)
(declare-fun l_1_0_7 () Real)
(declare-fun l_1_0_5 () Real)
(declare-fun l_1_0_4 () Real)
(declare-fun l_1_0_10 () Real)
(declare-fun _a_1_ () Real)
(declare-fun l_1_0_6 () Real)
(declare-fun l_1_0_11 () Real)
(declare-fun _a_2_ () Real)
(declare-fun l_1_1_9 () Real)
(declare-fun l_1_1_8 () Real)
(declare-fun l_1_1_7 () Real)
(declare-fun l_1_1_6 () Real)
(declare-fun l_1_1_5 () Real)
(declare-fun l_1_1_2 () Real)
(declare-fun l_1_1_15 () Real)
(declare-fun l_1_1_14 () Real)
(declare-fun l_1_1_12 () Real)
(declare-fun l_1_1_1 () Real)
(declare-fun l_1_1_4 () Real)
(declare-fun l_1_1_3 () Real)
(declare-fun l_1_1_13 () Real)
(declare-fun l_1_1_11 () Real)
(declare-fun l_1_1_10 () Real)
(declare-fun l_1_1_16 () Real)
(declare-fun l_1_1_17 () Real)
(declare-fun l_1_2_8 () Real)
(declare-fun l_1_2_5 () Real)
(declare-fun l_1_2_3 () Real)
(declare-fun l_1_2_15 () Real)
(declare-fun l_1_2_14 () Real)
(declare-fun l_1_2_13 () Real)
(declare-fun l_1_2_12 () Real)
(declare-fun l_1_2_11 () Real)
(declare-fun l_1_2_10 () Real)
(declare-fun l_1_2_1 () Real)
(declare-fun l_1_2_9 () Real)
(declare-fun l_1_2_7 () Real)
(declare-fun l_1_2_6 () Real)
(declare-fun l_1_2_4 () Real)
(declare-fun l_1_2_2 () Real)
(declare-fun l_1_2_16 () Real)
(declare-fun l_1_2_17 () Real)
(assert
 (let ((?x28 (* l_1_0_9 l_1_0_9)))
 (let ((?x541 (- (- (- (- (- _a_0_ l_1_0_1) l_1_0_2) l_1_0_3) l_1_0_8) ?x28)))
 (= ?x541 0.0))))
(assert
 (let ((?x203 (* 80.0 l_1_0_7)))
 (let ((?x136 (* 80.0 l_1_0_5)))
 (let ((?x491 (* 80.0 l_1_0_4)))
 (let ((?x399 (- (- (- (- _a_1_ (* (* 2.0 l_1_0_10) l_1_0_9)) ?x491) ?x136) ?x203)))
 (= ?x399 0.0))))))
(assert
 (let ((?x425 (* 6400.0 l_1_0_6)))
 (let ((?x422 (+ (- (- _a_2_ (* l_1_0_10 l_1_0_10)) (* l_1_0_11 l_1_0_11)) l_1_0_4)))
 (= (+ (- (+ ?x422 l_1_0_5) ?x425) l_1_0_7) 0.0))))
(assert
 (= (* 160.0 l_1_0_6) 0.0))
(assert
 (= (- l_1_0_6) 0.0))
(assert
 (>= l_1_0_1 0.0))
(assert
 (>= l_1_0_2 0.0))
(assert
 (>= l_1_0_3 0.0))
(assert
 (>= l_1_0_4 0.0))
(assert
 (>= l_1_0_5 0.0))
(assert
 (>= l_1_0_6 0.0))
(assert
 (>= l_1_0_7 0.0))
(assert
 (>= l_1_0_8 0.0))
(assert
 (>= l_1_0_9 0.0))
(assert
 (>= l_1_0_11 0.0))
(assert
 (let ((?x218 (* 82.0 l_1_1_7)))
 (let ((?x215 (* 6724.0 l_1_1_6)))
 (let ((?x201 (* 82.0 l_1_1_5)))
 (let ((?x15 (* l_1_1_15 l_1_1_15)))
 (let ((?x318 (* 82.0 l_1_1_12)))
 (let ((?x17 (* _a_0_ l_1_1_4)))
 (let ((?x20 (* _a_0_ l_1_1_13)))
 (let ((?x320 (+ (- (- (* (* 82.0 _a_0_) l_1_1_10) (* _a_0_ l_1_1_11)) ?x20) (* (* 82.0 _a_0_) l_1_1_3))))
 (let ((?x200 (- (- (- (+ (- (- ?x320 ?x17) l_1_1_1) ?x318) l_1_1_14) ?x15) l_1_1_2)))
 (let ((?x266 (- (- (+ (- (+ ?x200 ?x201) ?x215) ?x218) l_1_1_8) (* (* l_1_1_9 _a_0_) _a_0_))))
 (= (- ?x266 790.0) 0.0))))))))))))
(assert
 (let ((?x67 (* 81.0 l_1_1_7)))
 (let ((?x84 (* 13284.0 l_1_1_6)))
 (let ((?x115 (* 81.0 l_1_1_5)))
 (let ((?x58 (* 81.0 l_1_1_12)))
 (let ((?x8 (* _a_1_ l_1_1_4)))
 (let ((?x10 (* _a_1_ l_1_1_13)))
 (let ((?x11 (* _a_1_ l_1_1_11)))
 (let ((?x132 (- (- (- (* (* (* (- 2.0) _a_0_) _a_1_) l_1_1_9) ?x11) ?x10) ?x8)))
 (let ((?x109 (+ (- ?x132 (* l_1_1_10 (- (* (- 81.0) _a_0_) (* 82.0 _a_1_)))) ?x58)))
 (let ((?x114 (- (- ?x109 (* (* 2.0 l_1_1_15) l_1_1_16)) (* l_1_1_3 (- (* (- 81.0) _a_0_) (* 82.0 _a_1_))))))
 (= (- (+ (- (+ ?x114 ?x115) ?x84) ?x67) 69.0) 0.0))))))))))))
(assert
 (let ((?x186 (* 6397.0 l_1_1_6)))
 (let ((?x347 (* l_1_1_17 l_1_1_17)))
 (let ((?x188 (* l_1_1_16 l_1_1_16)))
 (let ((?x253 (* _a_2_ l_1_1_4)))
 (let ((?x276 (- (- (- (* (- _a_2_) l_1_1_11) (* _a_2_ l_1_1_13)) ?x253) (* l_1_1_10 (- (- _a_0_ (* 81.0 _a_1_)) (* 82.0 _a_2_))))))
 (let ((?x349 (- (- (- (- ?x276 l_1_1_12) ?x188) ?x347) (* l_1_1_3 (- (- _a_0_ (* 81.0 _a_1_)) (* 82.0 _a_2_))))))
 (let ((?x504 (- (- (- (- ?x349 l_1_1_5) ?x186) l_1_1_7) (* l_1_1_9 (+ (* (* 2.0 _a_0_) _a_2_) (* _a_1_ _a_1_))))))
 (= (+ ?x504 1.0) 0.0)))))))))
(assert
 (let ((?x473 (* 162.0 l_1_1_6)))
 (let ((?x522 (- (* (* (* (- 2.0) _a_1_) _a_2_) l_1_1_9) (* l_1_1_10 (- _a_1_ (* 81.0 _a_2_))))))
 (= (+ (- ?x522 (* l_1_1_3 (- _a_1_ (* 81.0 _a_2_)))) ?x473) 0.0))))
(assert
 (let ((?x548 (- (- (- (* (- _a_2_) l_1_1_10) (* _a_2_ l_1_1_3)) l_1_1_6) (* (* l_1_1_9 _a_2_) _a_2_))))
 (= ?x548 0.0)))
(assert
 (>= l_1_1_1 0.0))
(assert
 (>= l_1_1_2 0.0))
(assert
 (>= l_1_1_3 0.0))
(assert
 (>= l_1_1_4 0.0))
(assert
 (>= l_1_1_5 0.0))
(assert
 (>= l_1_1_6 0.0))
(assert
 (>= l_1_1_7 0.0))
(assert
 (>= l_1_1_8 0.0))
(assert
 (>= l_1_1_9 0.0))
(assert
 (>= l_1_1_10 0.0))
(assert
 (>= l_1_1_11 0.0))
(assert
 (>= l_1_1_12 0.0))
(assert
 (>= l_1_1_13 0.0))
(assert
 (>= l_1_1_14 0.0))
(assert
 (>= l_1_1_15 0.0))
(assert
 (>= l_1_1_17 0.0))
(assert
 (let ((?x611 (* 82.0 l_1_2_8)))
 (let ((?x609 (* 6724.0 l_1_2_5)))
 (let ((?x604 (* l_1_2_15 l_1_2_15)))
 (let ((?x601 (* 82.0 l_1_2_13)))
 (let ((?x598 (* 82.0 l_1_2_11)))
 (let ((?x594 (* (/ 1.0 4.0) _a_2_)))
 (let ((?x591 (* (/ 1.0 2.0) _a_1_)))
 (let ((?x585 (* _a_0_ l_1_2_7)))
 (let ((?x583 (* _a_0_ l_1_2_6)))
 (let ((?x584 (- (- (* (- _a_0_) l_1_2_2) (* (* 82.0 _a_0_) l_1_2_4)) ?x583)))
 (let ((?x592 (+ (+ (- (- ?x584 ?x585) (* (* 82.0 _a_0_) l_1_2_9)) _a_0_) ?x591)))
 (let ((?x602 (- (- (- (- (- (+ ?x592 ?x594) l_1_2_1) l_1_2_10) ?x598) l_1_2_12) ?x601)))
 (let ((?x610 (- (- (- (- ?x602 l_1_2_14) ?x604) (* (* l_1_2_3 _a_0_) _a_0_)) ?x609)))
 (= (- ?x610 ?x611) 0.0)))))))))))))))
(assert
 (let ((?x695 (* 81.0 l_1_2_8)))
 (let ((?x693 (* 13284.0 l_1_2_5)))
 (let ((?x684 (* 81.0 l_1_2_13)))
 (let ((?x682 (* 81.0 l_1_2_11)))
 (let ((?x677 (* _a_1_ l_1_2_7)))
 (let ((?x675 (* _a_1_ l_1_2_6)))
 (let ((?x673 (* _a_1_ l_1_2_2)))
 (let ((?x678 (- (- (- (* (* (* (- 2.0) _a_0_) _a_1_) l_1_2_3) ?x673) ?x675) ?x677)))
 (let ((?x688 (- (- (- (+ (+ ?x678 _a_1_) (* 1.0 _a_2_)) ?x682) ?x684) (* (* 2.0 l_1_2_15) l_1_2_16))))
 (let ((?x694 (- (- ?x688 (* l_1_2_4 (+ (* 81.0 _a_0_) (* 82.0 _a_1_)))) ?x693)))
 (let ((?x698 (- (- ?x694 ?x695) (* l_1_2_9 (+ (* 81.0 _a_0_) (* 82.0 _a_1_))))))
 (= ?x698 0.0)))))))))))))
(assert
 (let ((?x247 (* 82.0 _a_2_)))
 (let ((?x797 (+ (+ (- _a_0_) (* 81.0 _a_1_)) ?x247)))
 (let ((?x800 (* 6397.0 l_1_2_5)))
 (let ((?x792 (* l_1_2_17 l_1_2_17)))
 (let ((?x790 (* l_1_2_16 l_1_2_16)))
 (let ((?x786 (* (/ 9997291.0 10000000.0) _a_2_)))
 (let ((?x783 (* _a_2_ l_1_2_7)))
 (let ((?x781 (* _a_2_ l_1_2_6)))
 (let ((?x787 (+ (- (- (- (* (- (/ 2709.0 10000000.0)) _a_1_) (* _a_2_ l_1_2_2)) ?x781) ?x783) ?x786)))
 (let ((?x795 (- (- (- (+ (+ ?x787 l_1_2_11) l_1_2_13) ?x790) ?x792) (* l_1_2_3 (+ (* (* 2.0 _a_0_) _a_2_) (* _a_1_ _a_1_))))))
 (let ((?x804 (- (+ (- (- ?x795 (* l_1_2_4 ?x797)) ?x800) l_1_2_8) (* l_1_2_9 ?x797))))
 (= ?x804 0.0)))))))))))))
(assert
 (let ((?x908 (* 162.0 l_1_2_5)))
 (let ((?x907 (- (- (* (* (* (- 2.0) _a_1_) _a_2_) l_1_2_3) (* (/ 2709.0 5000000.0) _a_2_)) (* l_1_2_4 (+ (- _a_1_) (* 81.0 _a_2_))))))
 (= (- (+ ?x907 ?x908) (* l_1_2_9 (+ (- _a_1_) (* 81.0 _a_2_)))) 0.0))))
(assert
 (let ((?x964 (* (/ 7338681.0 100000000000000.0) _a_2_)))
 (let ((?x968 (- (+ (+ (* _a_2_ l_1_2_4) (* _a_2_ l_1_2_9)) ?x964) (* (* l_1_2_3 _a_2_) _a_2_))))
 (= (- ?x968 l_1_2_5) 0.0))))
(assert
 (>= l_1_2_1 0.0))
(assert
 (>= l_1_2_2 0.0))
(assert
 (>= l_1_2_3 0.0))
(assert
 (>= l_1_2_4 0.0))
(assert
 (>= l_1_2_5 0.0))
(assert
 (>= l_1_2_6 0.0))
(assert
 (>= l_1_2_7 0.0))
(assert
 (>= l_1_2_8 0.0))
(assert
 (>= l_1_2_9 0.0))
(assert
 (>= l_1_2_10 0.0))
(assert
 (>= l_1_2_11 0.0))
(assert
 (>= l_1_2_12 0.0))
(assert
 (>= l_1_2_13 0.0))
(assert
 (>= l_1_2_14 0.0))
(assert
 (>= l_1_2_15 0.0))
(assert
 (>= l_1_2_17 0.0))
(check-sat)
(get-model)